215 300 43 11 45 30 12 32 36 41 20 13 30 35 12 29 30 15 18 47 13 44 45 47 27 47 28 20 10 33 50 31 33 44 33 28 23 37 11 10 29 21 13 50 48 17 30 27 22 40 25 28 33 19 24 11 18 43 22 18 27 23 39 50 16 23 29 30 10 30 32 29 44 38 30 41 45 12 20 19 42 35 37 27 47 12 28 16 45 40 24 23 12 14 25 19 30 46 41 32 26 24 12 21 11 33 11 49 37 21 17 28 49 44 45 47 46 23 12 43 14 28 17 19 34 32 28 13 28 20 35 46 36 40 18 38 22 19 36 49 33 43 28 33 38 25 31 35 40 35 27 44 12 35 12 38 18 32 42 38 44 28 35 30 17 43 17 31 14 45 31 39 39 11 23 26 26 44 10 15 28 30 49 32 14 13 19 24 35 10 14 29 31 39 49 40 34 17 23 40 11 44 28 42 47 41 17 22 34 19 27 13 39 28 35 43 31 